c Random 3-SAT formula
c Number of variables: 5
c Number of clauses: 21
p cnf 5 21
-3 4 -1 0
5 2 -4 0
4 -2 3 0
1 -5 -2 0
-3 4 -1 0
3 -1 -5 0
4 1 2 0
2 4 5 0
1 -2 -3 0
1 -2 -4 0
-3 -4 2 0
2 -3 1 0
-1 5 4 0
-4 1 3 0
-5 -3 -4 0
3 4 -2 0
5 -3 4 0
3 2 -4 0
-5 -2 1 0
2 5 -4 0
-2 -3 -1 0
